Academic license - for non-commercial use only
Optimize a model with 2460 rows, 2200 columns and 249561 nonzeros
Variable types: 0 continuous, 2200 integer (2200 binary)
Coefficient statistics:
  Matrix range     [1e+00, 4e+01]
  Objective range  [1e+00, 6e+01]
  Bounds range     [1e+00, 1e+00]
  RHS range        [1e+00, 2e+02]
Presolve removed 499 rows and 360 columns
Presolve time: 0.98s
Presolved: 1961 rows, 1840 columns, 198705 nonzeros
Variable types: 0 continuous, 1840 integer (1840 binary)

Root relaxation: objective 9.476100e+01, 63 iterations, 0.02 seconds

    Nodes    |    Current Node    |     Objective Bounds      |     Work
 Expl Unexpl |  Obj  Depth IntInf | Incumbent    BestBd   Gap | It/Node Time

     0     0   94.76100    0   42          -   94.76100      -     -    1s
     0     0  125.38725    0   45          -  125.38725      -     -    1s
H    0     0                     364.0000000  125.38725  65.6%     -    1s
     0     0  129.09939    0   44  364.00000  129.09939  64.5%     -    1s
     0     0  129.11219    0   43  364.00000  129.11219  64.5%     -    1s
     0     0  174.16810    0   45  364.00000  174.16810  52.2%     -    2s
     0     0  179.20433    0   47  364.00000  179.20433  50.8%     -    2s
     0     0  197.33333    0   35  364.00000  197.33333  45.8%     -    2s
H    0     0                     358.0000000  197.33333  44.9%     -    3s
H    0     0                     352.0000000  197.33333  43.9%     -    3s
     0     0  207.50000    0   34  352.00000  207.50000  41.1%     -    3s
H    0     0                     337.0000000  207.50000  38.4%     -    3s
H    0     0                     332.0000000  207.50000  37.5%     -    3s
     0     0  207.50000    0   32  332.00000  207.50000  37.5%     -    3s
     0     0  215.33333    0   30  332.00000  215.33333  35.1%     -    3s
H    0     0                     331.0000000  215.33333  34.9%     -    3s
     0     0  222.00000    0   33  331.00000  222.00000  32.9%     -    3s
H    0     0                     326.0000000  222.00000  31.9%     -    3s
     0     0  222.25000    0   31  326.00000  222.25000  31.8%     -    3s
     0     0  222.37500    0   43  326.00000  222.37500  31.8%     -    3s
H    0     0                     320.0000000  222.37500  30.5%     -    4s
     0     0  229.00000    0   47  320.00000  229.00000  28.4%     -    4s
     0     0  229.00000    0   45  320.00000  229.00000  28.4%     -    4s
H    0     0                     315.0000000  229.00000  27.3%     -    4s
     0     0  235.50000    0   22  315.00000  235.50000  25.2%     -    4s
     0     0  241.00000    0   22  315.00000  241.00000  23.5%     -    4s
H    0     0                     313.0000000  241.00000  23.0%     -    5s
     0     0  246.50000    0   24  313.00000  246.50000  21.2%     -    5s
     0     0  251.71429    0   48  313.00000  251.71429  19.6%     -    5s
     0     0  256.25000    0   39  313.00000  256.25000  18.1%     -    6s
H    0     0                     302.0000000  256.25000  15.1%     -    6s
H    0     0                     289.0000000  256.25000  11.3%     -    6s
     0     0  260.50000    0   19  289.00000  260.50000  9.86%     -    6s
     0     0  260.50000    0   20  289.00000  260.50000  9.86%     -    6s
     0     0  264.00000    0   19  289.00000  264.00000  8.65%     -    7s
H    0     0                     288.0000000  264.00000  8.33%     -    7s
     0     0  264.00000    0   20  288.00000  264.00000  8.33%     -    7s
     0     0  267.50000    0   19  288.00000  267.50000  7.12%     -    7s
     0     0  267.50000    0   19  288.00000  267.50000  7.12%     -    7s
     0     0  271.00000    0   19  288.00000  271.00000  5.90%     -    8s
     0     0  271.00000    0   21  288.00000  271.00000  5.90%     -    8s
     0     0  274.50000    0   19  288.00000  274.50000  4.69%     -    8s
     0     0  274.50000    0   18  288.00000  274.50000  4.69%     -    9s
     0     0  274.50000    0   44  288.00000  274.50000  4.69%     -   10s
     0     0  274.50000    0   52  288.00000  274.50000  4.69%     -   10s
     0     0  274.50000    0   54  288.00000  274.50000  4.69%     -   10s
     0     0  274.50000    0   38  288.00000  274.50000  4.69%     -   11s
     0     0  274.50000    0   39  288.00000  274.50000  4.69%     -   11s
     0     0  274.50000    0   41  288.00000  274.50000  4.69%     -   11s
     0     0  274.50000    0   49  288.00000  274.50000  4.69%     -   11s
     0     0  274.50000    0   46  288.00000  274.50000  4.69%     -   11s
     0     0  274.50000    0   18  288.00000  274.50000  4.69%     -   11s
     0     0  274.50000    0   44  288.00000  274.50000  4.69%     -   11s
     0     0  274.50000    0   46  288.00000  274.50000  4.69%     -   11s
     0     0  274.50000    0   19  288.00000  274.50000  4.69%     -   11s
     0     0  277.50000    0   24  288.00000  277.50000  3.65%     -   11s
     0     0  277.50000    0   26  288.00000  277.50000  3.65%     -   11s
     0     0  277.53571    0   56  288.00000  277.53571  3.63%     -   12s
     0     0  279.33333    0   26  288.00000  279.33333  3.01%     -   12s
     0     0  279.33333    0   29  288.00000  279.33333  3.01%     -   12s
     0     0  281.00000    0   22  288.00000  281.00000  2.43%     -   13s
     0     0  281.00000    0   35  288.00000  281.00000  2.43%     -   13s
     0     0  282.60000    0   32  288.00000  282.60000  1.88%     -   13s
     0     0  282.60000    0   47  288.00000  282.60000  1.88%     -   14s
     0     0  282.60000    0   54  288.00000  282.60000  1.88%     -   14s
     0     0  282.60000    0   38  288.00000  282.60000  1.88%     -   14s
     0     0  282.60000    0   33  288.00000  282.60000  1.88%     -   14s
     0     0  282.60000    0   39  288.00000  282.60000  1.88%     -   14s
     0     0  282.60000    0   18  288.00000  282.60000  1.88%     -   14s
     0     0  282.60000    0   47  288.00000  282.60000  1.88%     -   14s
     0     0  282.60000    0   43  288.00000  282.60000  1.88%     -   15s
     0     0  282.60000    0   41  288.00000  282.60000  1.88%     -   15s
     0     0  282.60000    0   22  288.00000  282.60000  1.88%     -   15s
     0     0  282.60000    0   55  288.00000  282.60000  1.87%     -   15s
     0     0  282.60000    0   58  288.00000  282.60000  1.87%     -   15s
     0     0  282.60000    0   63  288.00000  282.60000  1.87%     -   15s
     0     0  282.60000    0   39  288.00000  282.60000  1.87%     -   15s
     0     0  284.00000    0   41  288.00000  284.00000  1.39%     -   15s
     0     0  284.00000    0   37  288.00000  284.00000  1.39%     -   15s
     0     0  284.00000    0   23  288.00000  284.00000  1.39%     -   15s
     0     0  284.00000    0   52  288.00000  284.00000  1.39%     -   16s
     0     0  284.00000    0   54  288.00000  284.00000  1.39%     -   16s
     0     0  284.00000    0   46  288.00000  284.00000  1.39%     -   16s
     0     0  284.00000    0   43  288.00000  284.00000  1.39%     -   17s
     0     0  284.00000    0   46  288.00000  284.00000  1.39%     -   17s
     0     0  284.00000    0   40  288.00000  284.00000  1.39%     -   17s
     0     0  284.00000    0   34  288.00000  284.00000  1.39%     -   17s
     0     0  284.00000    0   49  288.00000  284.00000  1.39%     -   17s
     0     0  284.00000    0   33  288.00000  284.00000  1.39%     -   17s
     0     0  284.00000    0   39  288.00000  284.00000  1.39%     -   17s
     0     0  284.81818    0   54  288.00000  284.81818  1.10%     -   17s
     0     0  285.00000    0   61  288.00000  285.00000  1.04%     -   17s
     0     0  285.00000    0   41  288.00000  285.00000  1.04%     -   17s
     0     0  285.85714    0   56  288.00000  285.85714  0.74%     -   17s
     0     0  285.85714    0   55  288.00000  285.85714  0.74%     -   17s
     0     0  285.85714    0   51  288.00000  285.85714  0.74%     -   17s
     0     0  285.85714    0   51  288.00000  285.85714  0.74%     -   18s
     0     0  285.85714    0   62  288.00000  285.85714  0.74%     -   18s
     0     0  285.85714    0   44  288.00000  285.85714  0.74%     -   18s
     0     0  285.85714    0   49  288.00000  285.85714  0.74%     -   18s
     0     0  285.85714    0   44  288.00000  285.85714  0.74%     -   18s
     0     0  285.85714    0   53  288.00000  285.85714  0.74%     -   18s
     0     0  285.85714    0   50  288.00000  285.85714  0.74%     -   18s
     0     0  286.00000    0    4  288.00000  286.00000  0.69%     -   18s
     0     0  286.33333    0   39  288.00000  286.33333  0.58%     -   18s
*    0     0               0     287.0000000  287.00000  0.00%     -   18s
     0     0          -    0       287.00000  287.00000  0.00%     -   18s

Cutting planes:
  Cover: 2
  Clique: 57
  MIR: 4
  GUB cover: 1
  Zero half: 2

Explored 1 nodes (7758 simplex iterations) in 18.58 seconds
Thread count was 8 (of 8 available processors)

Solution count 10: 287 288 289 ... 332

Optimal solution found (tolerance 1.00e-04)
Best objective 2.870000000000e+02, best bound 2.870000000000e+02, gap 0.0000%

